  4	28
 18
  0	  7	  9	 35	 37	 14	 23	 11	 42	 39	 51	  4	 32	  6	 34	 15	 43	 57	
 12
  0	 25	  5	 22	 33	 50	 53	 24	 26	 52	 54	 57	
 16
  0	  2	 30	 10	 16	 20	 21	 44	 38	 49	 48	 27	  1	 55	 29	 57	
 18
  0	 19	  3	 47	 31	 13	 18	 46	 17	 28	 41	 12	 45	  8	 40	 56	 36	 57	
